NAME: lin105.heu.tour
TYPE: TOUR
COMMENT: Heuristic tour (Lin-Kernighan), length 14828.14
DIMENSION: 105
TOUR_SECTION
1
3
8
9
5
4
13
14
34
35
38
39
42
41
43
46
52
44
47
51
54
57
53
58
62
63
61
60
65
66
87
88
94
95
100
99
98
90
89
81
75
74
70
69
73
76
80
72
77
79
86
93
102
101
97
96
92
91
85
84
83
82
78
71
68
67
64
105
59
56
55
50
48
45
49
40
104
36
37
26
25
18
17
16
27
24
19
12
20
23
28
33
32
31
30
29
22
21
103
15
11
10
7
6
2
-1
EOF
